15,1,10,1,14,1,8,1,17,2,1,2,14,3,16,3,5,4,13,2,5,5,13,3,18,3,7,2,4,5,12,5,7,4,20,5,2,5,3,5;9,1,12,1,18,1,1,1,19,1,20,2,13,1,17,3,9,3,20,4,8,4,14,5,7,1,19,3,16,5,19,4,11,5,2,3,2,4,10,5;17,1,20,1,6,1,6,2,12,4,8,3,9,4,4,4,6,3,3,2,6,4,15,5,1,4,11,4,3,4,13,5,7,5;4,1,12,2,5,1,15,2,2,1,20,3,4,2,14,4,4,3,17,4,18,2,16,4,9,5,15,4,11,3,10,3,1,5,7,3,18,4,18,5,19,5;16,1,16,2,9,2,8,2,12,3,14,2,10,2,5,2,15,3,5,3,1,3,3,1,19,2,11,1,11,2,2,2,3,3,13,4,17,5,10,4,8,5,6,5;
